; redis-py :: corpus-study/repo_src/redis-py/redis/asyncio/multidb/healthcheck.py :: wait_for at execute_with_timeout:141 :: naive encoding (verdict: unsat)
; Generated by snf-pipeline (encoder.py) -- run with any
; SMT-LIB2-compliant solver, e.g. `z3 redis-py__corpus-study_repo_src_redis-py_redis_asyncio_multidb_healthcheck.py__waitfor_execute_with_timeout_L141__naive.smt2`
; benchmark generated from python API
(set-info :status unknown)
(declare-fun timeout_fires () Bool)
(declare-fun cleanup_ran () Bool)
(assert
 (= timeout_fires false))
(assert
 (let (($x27 (not cleanup_ran)))
(and timeout_fires $x27)))
(check-sat)
